Version identifier: 22.1.1.0 | 2022-11-28 | 9160aff4d
CPXPARAM_ClockType                               1
CPXPARAM_Read_DataCheck                          1
CPXPARAM_Threads                                 1
CPXPARAM_TimeLimit                               7200
CPXPARAM_MIP_Tolerances_AbsMIPGap                0
CPXPARAM_MIP_Tolerances_MIPGap                   0
CPXPARAM_MIP_Tolerances_Integrality              0
Tried aggregator 2 times.
MIP Presolve eliminated 25081 rows and 9270 columns.
MIP Presolve modified 3574 coefficients.
Aggregator did 812 substitutions.
Reduced MIP has 6281 rows, 4060 columns, and 16216 nonzeros.
Reduced MIP has 4060 binaries, 0 generals, 0 SOSs, and 0 indicators.
Presolve time = 0.05 sec. (32.19 ticks)
Found incumbent of value 0.000000 after 0.05 sec. (37.72 ticks)
Probing time = 0.01 sec. (2.92 ticks)
Tried aggregator 1 time.
Detecting symmetries...
Reduced MIP has 6281 rows, 4060 columns, and 16216 nonzeros.
Reduced MIP has 4060 binaries, 0 generals, 0 SOSs, and 0 indicators.
Presolve time = 0.03 sec. (15.06 ticks)
Probing time = 0.01 sec. (2.86 ticks)
Clique table members: 8190.
MIP emphasis: balance optimality and feasibility.
MIP search method: dynamic search.
Parallel mode: none, using 1 thread.
Root relaxation solution time = 0.29 sec. (203.38 ticks)

        Nodes                                         Cuts/
   Node  Left     Objective  IInf  Best Integer    Best Bound    ItCnt     Gap

*     0+    0                            0.0000    13195.0000              --- 
      0     0     6597.5000  1765        0.0000     6597.5000     4234     --- 
      0     0     5082.0476   585        0.0000     Cuts: 505     7923     --- 
      0     0     5075.1429  1171        0.0000      Cuts: 68     8328     --- 
*     0+    0                         5075.0000     5075.1429             0.00%
      0     0        cutoff           5075.0000     5075.1429     8328    0.00%
Elapsed time = 2.37 sec. (1756.28 ticks, tree = 0.01 MB, solutions = 2)

Cover cuts applied:  5
Zero-half cuts applied:  468
Lift and project cuts applied:  4
Gomory fractional cuts applied:  30

Root node processing (before b&c):
  Real time             =    2.37 sec. (1756.92 ticks)
Sequential b&c:
  Real time             =    0.00 sec. (0.00 ticks)
                          ------------
Total (root+branch&cut) =    2.37 sec. (1756.92 ticks)
Solution is feasible.

---------------------
@@@ MIP_optimal
>>> Benchmark mc2024_track1_181.cnf k 10 OPT 5075 TimeCost 9.503710746765137 TimeSolve 2.4030377864837646 TimeRead 0.00577998161315918 TimeTrans 7.094892978668213
